(set-info :source  loris-7.ddns.comp.nus.edu.sg/~project/hip/) 
;Variables declarations
(declare-fun nn () Int)
(declare-fun sm_1622 () Int)
(declare-fun s0 () Int)
(declare-fun v_bool_55_1443_primed () Int)
(declare-fun b0 () Int)
(declare-fun y_primed () Int)
(declare-fun x () Int)
(declare-fun qs_1626 () Int)
(declare-fun lg_1623 () Int)
(declare-fun flted_14_1624 () Int)
(declare-fun s2 () Int)
(declare-fun b2 () Int)
(declare-fun m () Int)
(declare-fun x_primed () Int)
(declare-fun q_1625 () Int)
(declare-fun y () Int)
;Relations declarations
;Axioms assertions
;Antecedent
(assert (= (+ flted_14_1624 1) nn))
(assert (<= s0 qs_1626))
(assert (= sm_1622 s0))
(assert (= lg_1623 b0))
(assert (not (> v_bool_55_1443_primed 0)))
(assert (> x_primed 0))
(assert (<= b0 s2))
(assert (= y_primed y))
(assert (= x_primed x))
(assert (= x_primed 1))
(assert (or (and (and (= lg_1623 qs_1626) (= flted_14_1624 1)) (> q_1625 0)) (and (and (<= qs_1626 lg_1623) (<= 2 flted_14_1624)) (> q_1625 0))))
(assert (or (and (and (= b2 s2) (= m 1)) (> y 0)) (and (and (<= s2 b2) (<= 2 m)) (> y 0))))
(assert (not (= x_primed y)))
(assert (not (= x_primed q_1625)))
(assert (not (= q_1625 y)))
;Negation of Consequence
(assert (not false))
(check-sat)